(declare-fun C1 () Real)
(declare-fun C2 () Real)
(declare-fun C3 () Real)
(declare-fun C4 () Real)
(declare-fun C5 () Real)
(declare-fun C6 () Real)
(declare-fun C7 () Real)
(declare-fun C8 () Real)
(declare-fun C9 () Real)
(declare-fun C10 () Real)
(declare-fun k () Real)
(assert (let 
(( $goal (<= (+ (/ C1 437 ) (/ C2 464 ) (/ C3 804 ) (/ C4 1183 ) (/ C5 2241 ) (/ C6 2280 ) (/ C7 2715 ) (/ C8 4138 ) (/ C9 4571 ) (/ C10 4981 ) ) k ) ))
(let 
(($phi ( and ( or  (>= 437 (+  (* 1 C1)  (* 0 C2)  (* 0 C3)  (* 0 C4)  (* 0 C5)  (* 0 C6)  (* 0 C7)  (* 0 C8)  (* 0 C9)  (* 0 C10) )) ) ( or  (>= 437 (+  (* 1 C1)  (* 1 C2)  (* 0 C3)  (* 0 C4)  (* 0 C5)  (* 0 C6)  (* 0 C7)  (* 0 C8)  (* 0 C9)  (* 0 C10) ))  (>= 464 (+  (* 2 C1)  (* 1 C2)  (* 0 C3)  (* 0 C4)  (* 0 C5)  (* 0 C6)  (* 0 C7)  (* 0 C8)  (* 0 C9)  (* 0 C10) )) ) ( or  (>= 437 (+  (* 1 C1)  (* 1 C2)  (* 1 C3)  (* 0 C4)  (* 0 C5)  (* 0 C6)  (* 0 C7)  (* 0 C8)  (* 0 C9)  (* 0 C10) ))  (>= 464 (+  (* 2 C1)  (* 1 C2)  (* 1 C3)  (* 0 C4)  (* 0 C5)  (* 0 C6)  (* 0 C7)  (* 0 C8)  (* 0 C9)  (* 0 C10) ))  (>= 804 (+  (* 2 C1)  (* 2 C2)  (* 1 C3)  (* 0 C4)  (* 0 C5)  (* 0 C6)  (* 0 C7)  (* 0 C8)  (* 0 C9)  (* 0 C10) )) ) ( or  (>= 437 (+  (* 1 C1)  (* 1 C2)  (* 1 C3)  (* 1 C4)  (* 0 C5)  (* 0 C6)  (* 0 C7)  (* 0 C8)  (* 0 C9)  (* 0 C10) ))  (>= 464 (+  (* 2 C1)  (* 1 C2)  (* 1 C3)  (* 1 C4)  (* 0 C5)  (* 0 C6)  (* 0 C7)  (* 0 C8)  (* 0 C9)  (* 0 C10) ))  (>= 804 (+  (* 2 C1)  (* 2 C2)  (* 1 C3)  (* 1 C4)  (* 0 C5)  (* 0 C6)  (* 0 C7)  (* 0 C8)  (* 0 C9)  (* 0 C10) ))  (>= 874 (+  (* 2 C1)  (* 2 C2)  (* 2 C3)  (* 1 C4)  (* 0 C5)  (* 0 C6)  (* 0 C7)  (* 0 C8)  (* 0 C9)  (* 0 C10) ))  (>= 928 (+  (* 3 C1)  (* 2 C2)  (* 2 C3)  (* 1 C4)  (* 0 C5)  (* 0 C6)  (* 0 C7)  (* 0 C8)  (* 0 C9)  (* 0 C10) ))  (>= 1183 (+  (* 3 C1)  (* 3 C2)  (* 2 C3)  (* 1 C4)  (* 0 C5)  (* 0 C6)  (* 0 C7)  (* 0 C8)  (* 0 C9)  (* 0 C10) )) ) ( or  (>= 437 (+  (* 1 C1)  (* 1 C2)  (* 1 C3)  (* 1 C4)  (* 1 C5)  (* 0 C6)  (* 0 C7)  (* 0 C8)  (* 0 C9)  (* 0 C10) ))  (>= 464 (+  (* 2 C1)  (* 1 C2)  (* 1 C3)  (* 1 C4)  (* 1 C5)  (* 0 C6)  (* 0 C7)  (* 0 C8)  (* 0 C9)  (* 0 C10) ))  (>= 804 (+  (* 2 C1)  (* 2 C2)  (* 1 C3)  (* 1 C4)  (* 1 C5)  (* 0 C6)  (* 0 C7)  (* 0 C8)  (* 0 C9)  (* 0 C10) ))  (>= 874 (+  (* 2 C1)  (* 2 C2)  (* 2 C3)  (* 1 C4)  (* 1 C5)  (* 0 C6)  (* 0 C7)  (* 0 C8)  (* 0 C9)  (* 0 C10) ))  (>= 928 (+  (* 3 C1)  (* 2 C2)  (* 2 C3)  (* 1 C4)  (* 1 C5)  (* 0 C6)  (* 0 C7)  (* 0 C8)  (* 0 C9)  (* 0 C10) ))  (>= 1183 (+  (* 3 C1)  (* 3 C2)  (* 2 C3)  (* 1 C4)  (* 1 C5)  (* 0 C6)  (* 0 C7)  (* 0 C8)  (* 0 C9)  (* 0 C10) ))  (>= 1311 (+  (* 3 C1)  (* 3 C2)  (* 2 C3)  (* 2 C4)  (* 1 C5)  (* 0 C6)  (* 0 C7)  (* 0 C8)  (* 0 C9)  (* 0 C10) ))  (>= 1392 (+  (* 4 C1)  (* 3 C2)  (* 2 C3)  (* 2 C4)  (* 1 C5)  (* 0 C6)  (* 0 C7)  (* 0 C8)  (* 0 C9)  (* 0 C10) ))  (>= 1608 (+  (* 4 C1)  (* 4 C2)  (* 2 C3)  (* 2 C4)  (* 1 C5)  (* 0 C6)  (* 0 C7)  (* 0 C8)  (* 0 C9)  (* 0 C10) ))  (>= 1748 (+  (* 4 C1)  (* 4 C2)  (* 3 C3)  (* 2 C4)  (* 1 C5)  (* 0 C6)  (* 0 C7)  (* 0 C8)  (* 0 C9)  (* 0 C10) ))  (>= 1856 (+  (* 5 C1)  (* 4 C2)  (* 3 C3)  (* 2 C4)  (* 1 C5)  (* 0 C6)  (* 0 C7)  (* 0 C8)  (* 0 C9)  (* 0 C10) ))  (>= 2185 (+  (* 5 C1)  (* 5 C2)  (* 3 C3)  (* 2 C4)  (* 1 C5)  (* 0 C6)  (* 0 C7)  (* 0 C8)  (* 0 C9)  (* 0 C10) ))  (>= 2241 (+  (* 6 C1)  (* 5 C2)  (* 3 C3)  (* 2 C4)  (* 1 C5)  (* 0 C6)  (* 0 C7)  (* 0 C8)  (* 0 C9)  (* 0 C10) )) ) ( or  (>= 437 (+  (* 1 C1)  (* 1 C2)  (* 1 C3)  (* 1 C4)  (* 1 C5)  (* 1 C6)  (* 0 C7)  (* 0 C8)  (* 0 C9)  (* 0 C10) ))  (>= 464 (+  (* 2 C1)  (* 1 C2)  (* 1 C3)  (* 1 C4)  (* 1 C5)  (* 1 C6)  (* 0 C7)  (* 0 C8)  (* 0 C9)  (* 0 C10) ))  (>= 804 (+  (* 2 C1)  (* 2 C2)  (* 1 C3)  (* 1 C4)  (* 1 C5)  (* 1 C6)  (* 0 C7)  (* 0 C8)  (* 0 C9)  (* 0 C10) ))  (>= 874 (+  (* 2 C1)  (* 2 C2)  (* 2 C3)  (* 1 C4)  (* 1 C5)  (* 1 C6)  (* 0 C7)  (* 0 C8)  (* 0 C9)  (* 0 C10) ))  (>= 928 (+  (* 3 C1)  (* 2 C2)  (* 2 C3)  (* 1 C4)  (* 1 C5)  (* 1 C6)  (* 0 C7)  (* 0 C8)  (* 0 C9)  (* 0 C10) ))  (>= 1183 (+  (* 3 C1)  (* 3 C2)  (* 2 C3)  (* 1 C4)  (* 1 C5)  (* 1 C6)  (* 0 C7)  (* 0 C8)  (* 0 C9)  (* 0 C10) ))  (>= 1311 (+  (* 3 C1)  (* 3 C2)  (* 2 C3)  (* 2 C4)  (* 1 C5)  (* 1 C6)  (* 0 C7)  (* 0 C8)  (* 0 C9)  (* 0 C10) ))  (>= 1392 (+  (* 4 C1)  (* 3 C2)  (* 2 C3)  (* 2 C4)  (* 1 C5)  (* 1 C6)  (* 0 C7)  (* 0 C8)  (* 0 C9)  (* 0 C10) ))  (>= 1608 (+  (* 4 C1)  (* 4 C2)  (* 2 C3)  (* 2 C4)  (* 1 C5)  (* 1 C6)  (* 0 C7)  (* 0 C8)  (* 0 C9)  (* 0 C10) ))  (>= 1748 (+  (* 4 C1)  (* 4 C2)  (* 3 C3)  (* 2 C4)  (* 1 C5)  (* 1 C6)  (* 0 C7)  (* 0 C8)  (* 0 C9)  (* 0 C10) ))  (>= 1856 (+  (* 5 C1)  (* 4 C2)  (* 3 C3)  (* 2 C4)  (* 1 C5)  (* 1 C6)  (* 0 C7)  (* 0 C8)  (* 0 C9)  (* 0 C10) ))  (>= 2185 (+  (* 5 C1)  (* 5 C2)  (* 3 C3)  (* 2 C4)  (* 1 C5)  (* 1 C6)  (* 0 C7)  (* 0 C8)  (* 0 C9)  (* 0 C10) ))  (>= 2241 (+  (* 6 C1)  (* 5 C2)  (* 3 C3)  (* 2 C4)  (* 1 C5)  (* 1 C6)  (* 0 C7)  (* 0 C8)  (* 0 C9)  (* 0 C10) ))  (>= 2280 (+  (* 6 C1)  (* 5 C2)  (* 3 C3)  (* 2 C4)  (* 2 C5)  (* 1 C6)  (* 0 C7)  (* 0 C8)  (* 0 C9)  (* 0 C10) )) ) ( or  (>= 437 (+  (* 1 C1)  (* 1 C2)  (* 1 C3)  (* 1 C4)  (* 1 C5)  (* 1 C6)  (* 1 C7)  (* 0 C8)  (* 0 C9)  (* 0 C10) ))  (>= 464 (+  (* 2 C1)  (* 1 C2)  (* 1 C3)  (* 1 C4)  (* 1 C5)  (* 1 C6)  (* 1 C7)  (* 0 C8)  (* 0 C9)  (* 0 C10) ))  (>= 804 (+  (* 2 C1)  (* 2 C2)  (* 1 C3)  (* 1 C4)  (* 1 C5)  (* 1 C6)  (* 1 C7)  (* 0 C8)  (* 0 C9)  (* 0 C10) ))  (>= 874 (+  (* 2 C1)  (* 2 C2)  (* 2 C3)  (* 1 C4)  (* 1 C5)  (* 1 C6)  (* 1 C7)  (* 0 C8)  (* 0 C9)  (* 0 C10) ))  (>= 928 (+  (* 3 C1)  (* 2 C2)  (* 2 C3)  (* 1 C4)  (* 1 C5)  (* 1 C6)  (* 1 C7)  (* 0 C8)  (* 0 C9)  (* 0 C10) ))  (>= 1183 (+  (* 3 C1)  (* 3 C2)  (* 2 C3)  (* 1 C4)  (* 1 C5)  (* 1 C6)  (* 1 C7)  (* 0 C8)  (* 0 C9)  (* 0 C10) ))  (>= 1311 (+  (* 3 C1)  (* 3 C2)  (* 2 C3)  (* 2 C4)  (* 1 C5)  (* 1 C6)  (* 1 C7)  (* 0 C8)  (* 0 C9)  (* 0 C10) ))  (>= 1392 (+  (* 4 C1)  (* 3 C2)  (* 2 C3)  (* 2 C4)  (* 1 C5)  (* 1 C6)  (* 1 C7)  (* 0 C8)  (* 0 C9)  (* 0 C10) ))  (>= 1608 (+  (* 4 C1)  (* 4 C2)  (* 2 C3)  (* 2 C4)  (* 1 C5)  (* 1 C6)  (* 1 C7)  (* 0 C8)  (* 0 C9)  (* 0 C10) ))  (>= 1748 (+  (* 4 C1)  (* 4 C2)  (* 3 C3)  (* 2 C4)  (* 1 C5)  (* 1 C6)  (* 1 C7)  (* 0 C8)  (* 0 C9)  (* 0 C10) ))  (>= 1856 (+  (* 5 C1)  (* 4 C2)  (* 3 C3)  (* 2 C4)  (* 1 C5)  (* 1 C6)  (* 1 C7)  (* 0 C8)  (* 0 C9)  (* 0 C10) ))  (>= 2185 (+  (* 5 C1)  (* 5 C2)  (* 3 C3)  (* 2 C4)  (* 1 C5)  (* 1 C6)  (* 1 C7)  (* 0 C8)  (* 0 C9)  (* 0 C10) ))  (>= 2241 (+  (* 6 C1)  (* 5 C2)  (* 3 C3)  (* 2 C4)  (* 1 C5)  (* 1 C6)  (* 1 C7)  (* 0 C8)  (* 0 C9)  (* 0 C10) ))  (>= 2280 (+  (* 6 C1)  (* 5 C2)  (* 3 C3)  (* 2 C4)  (* 2 C5)  (* 1 C6)  (* 1 C7)  (* 0 C8)  (* 0 C9)  (* 0 C10) ))  (>= 2320 (+  (* 6 C1)  (* 5 C2)  (* 3 C3)  (* 2 C4)  (* 2 C5)  (* 2 C6)  (* 1 C7)  (* 0 C8)  (* 0 C9)  (* 0 C10) ))  (>= 2366 (+  (* 6 C1)  (* 6 C2)  (* 3 C3)  (* 2 C4)  (* 2 C5)  (* 2 C6)  (* 1 C7)  (* 0 C8)  (* 0 C9)  (* 0 C10) ))  (>= 2412 (+  (* 6 C1)  (* 6 C2)  (* 3 C3)  (* 3 C4)  (* 2 C5)  (* 2 C6)  (* 1 C7)  (* 0 C8)  (* 0 C9)  (* 0 C10) ))  (>= 2622 (+  (* 6 C1)  (* 6 C2)  (* 4 C3)  (* 3 C4)  (* 2 C5)  (* 2 C6)  (* 1 C7)  (* 0 C8)  (* 0 C9)  (* 0 C10) ))  (>= 2715 (+  (* 7 C1)  (* 6 C2)  (* 4 C3)  (* 3 C4)  (* 2 C5)  (* 2 C6)  (* 1 C7)  (* 0 C8)  (* 0 C9)  (* 0 C10) )) ) ( or  (>= 437 (+  (* 1 C1)  (* 1 C2)  (* 1 C3)  (* 1 C4)  (* 1 C5)  (* 1 C6)  (* 1 C7)  (* 1 C8)  (* 0 C9)  (* 0 C10) ))  (>= 464 (+  (* 2 C1)  (* 1 C2)  (* 1 C3)  (* 1 C4)  (* 1 C5)  (* 1 C6)  (* 1 C7)  (* 1 C8)  (* 0 C9)  (* 0 C10) ))  (>= 804 (+  (* 2 C1)  (* 2 C2)  (* 1 C3)  (* 1 C4)  (* 1 C5)  (* 1 C6)  (* 1 C7)  (* 1 C8)  (* 0 C9)  (* 0 C10) ))  (>= 874 (+  (* 2 C1)  (* 2 C2)  (* 2 C3)  (* 1 C4)  (* 1 C5)  (* 1 C6)  (* 1 C7)  (* 1 C8)  (* 0 C9)  (* 0 C10) ))  (>= 928 (+  (* 3 C1)  (* 2 C2)  (* 2 C3)  (* 1 C4)  (* 1 C5)  (* 1 C6)  (* 1 C7)  (* 1 C8)  (* 0 C9)  (* 0 C10) ))  (>= 1183 (+  (* 3 C1)  (* 3 C2)  (* 2 C3)  (* 1 C4)  (* 1 C5)  (* 1 C6)  (* 1 C7)  (* 1 C8)  (* 0 C9)  (* 0 C10) ))  (>= 1311 (+  (* 3 C1)  (* 3 C2)  (* 2 C3)  (* 2 C4)  (* 1 C5)  (* 1 C6)  (* 1 C7)  (* 1 C8)  (* 0 C9)  (* 0 C10) ))  (>= 1392 (+  (* 4 C1)  (* 3 C2)  (* 2 C3)  (* 2 C4)  (* 1 C5)  (* 1 C6)  (* 1 C7)  (* 1 C8)  (* 0 C9)  (* 0 C10) ))  (>= 1608 (+  (* 4 C1)  (* 4 C2)  (* 2 C3)  (* 2 C4)  (* 1 C5)  (* 1 C6)  (* 1 C7)  (* 1 C8)  (* 0 C9)  (* 0 C10) ))  (>= 1748 (+  (* 4 C1)  (* 4 C2)  (* 3 C3)  (* 2 C4)  (* 1 C5)  (* 1 C6)  (* 1 C7)  (* 1 C8)  (* 0 C9)  (* 0 C10) ))  (>= 1856 (+  (* 5 C1)  (* 4 C2)  (* 3 C3)  (* 2 C4)  (* 1 C5)  (* 1 C6)  (* 1 C7)  (* 1 C8)  (* 0 C9)  (* 0 C10) ))  (>= 2185 (+  (* 5 C1)  (* 5 C2)  (* 3 C3)  (* 2 C4)  (* 1 C5)  (* 1 C6)  (* 1 C7)  (* 1 C8)  (* 0 C9)  (* 0 C10) ))  (>= 2241 (+  (* 6 C1)  (* 5 C2)  (* 3 C3)  (* 2 C4)  (* 1 C5)  (* 1 C6)  (* 1 C7)  (* 1 C8)  (* 0 C9)  (* 0 C10) ))  (>= 2280 (+  (* 6 C1)  (* 5 C2)  (* 3 C3)  (* 2 C4)  (* 2 C5)  (* 1 C6)  (* 1 C7)  (* 1 C8)  (* 0 C9)  (* 0 C10) ))  (>= 2320 (+  (* 6 C1)  (* 5 C2)  (* 3 C3)  (* 2 C4)  (* 2 C5)  (* 2 C6)  (* 1 C7)  (* 1 C8)  (* 0 C9)  (* 0 C10) ))  (>= 2366 (+  (* 6 C1)  (* 6 C2)  (* 3 C3)  (* 2 C4)  (* 2 C5)  (* 2 C6)  (* 1 C7)  (* 1 C8)  (* 0 C9)  (* 0 C10) ))  (>= 2412 (+  (* 6 C1)  (* 6 C2)  (* 3 C3)  (* 3 C4)  (* 2 C5)  (* 2 C6)  (* 1 C7)  (* 1 C8)  (* 0 C9)  (* 0 C10) ))  (>= 2622 (+  (* 6 C1)  (* 6 C2)  (* 4 C3)  (* 3 C4)  (* 2 C5)  (* 2 C6)  (* 1 C7)  (* 1 C8)  (* 0 C9)  (* 0 C10) ))  (>= 2715 (+  (* 7 C1)  (* 6 C2)  (* 4 C3)  (* 3 C4)  (* 2 C5)  (* 2 C6)  (* 1 C7)  (* 1 C8)  (* 0 C9)  (* 0 C10) ))  (>= 2784 (+  (* 7 C1)  (* 6 C2)  (* 4 C3)  (* 3 C4)  (* 2 C5)  (* 2 C6)  (* 2 C7)  (* 1 C8)  (* 0 C9)  (* 0 C10) ))  (>= 3059 (+  (* 7 C1)  (* 7 C2)  (* 4 C3)  (* 3 C4)  (* 2 C5)  (* 2 C6)  (* 2 C7)  (* 1 C8)  (* 0 C9)  (* 0 C10) ))  (>= 3216 (+  (* 8 C1)  (* 7 C2)  (* 4 C3)  (* 3 C4)  (* 2 C5)  (* 2 C6)  (* 2 C7)  (* 1 C8)  (* 0 C9)  (* 0 C10) ))  (>= 3248 (+  (* 8 C1)  (* 7 C2)  (* 5 C3)  (* 3 C4)  (* 2 C5)  (* 2 C6)  (* 2 C7)  (* 1 C8)  (* 0 C9)  (* 0 C10) ))  (>= 3496 (+  (* 8 C1)  (* 8 C2)  (* 5 C3)  (* 3 C4)  (* 2 C5)  (* 2 C6)  (* 2 C7)  (* 1 C8)  (* 0 C9)  (* 0 C10) ))  (>= 3549 (+  (* 9 C1)  (* 8 C2)  (* 5 C3)  (* 3 C4)  (* 2 C5)  (* 2 C6)  (* 2 C7)  (* 1 C8)  (* 0 C9)  (* 0 C10) ))  (>= 3712 (+  (* 9 C1)  (* 8 C2)  (* 5 C3)  (* 4 C4)  (* 2 C5)  (* 2 C6)  (* 2 C7)  (* 1 C8)  (* 0 C9)  (* 0 C10) ))  (>= 3933 (+  (* 9 C1)  (* 9 C2)  (* 5 C3)  (* 4 C4)  (* 2 C5)  (* 2 C6)  (* 2 C7)  (* 1 C8)  (* 0 C9)  (* 0 C10) ))  (>= 4020 (+  (* 10 C1)  (* 9 C2)  (* 5 C3)  (* 4 C4)  (* 2 C5)  (* 2 C6)  (* 2 C7)  (* 1 C8)  (* 0 C9)  (* 0 C10) ))  (>= 4138 (+  (* 10 C1)  (* 9 C2)  (* 6 C3)  (* 4 C4)  (* 2 C5)  (* 2 C6)  (* 2 C7)  (* 1 C8)  (* 0 C9)  (* 0 C10) )) ) ( or  (>= 437 (+  (* 1 C1)  (* 1 C2)  (* 1 C3)  (* 1 C4)  (* 1 C5)  (* 1 C6)  (* 1 C7)  (* 1 C8)  (* 1 C9)  (* 0 C10) ))  (>= 464 (+  (* 2 C1)  (* 1 C2)  (* 1 C3)  (* 1 C4)  (* 1 C5)  (* 1 C6)  (* 1 C7)  (* 1 C8)  (* 1 C9)  (* 0 C10) ))  (>= 804 (+  (* 2 C1)  (* 2 C2)  (* 1 C3)  (* 1 C4)  (* 1 C5)  (* 1 C6)  (* 1 C7)  (* 1 C8)  (* 1 C9)  (* 0 C10) ))  (>= 874 (+  (* 2 C1)  (* 2 C2)  (* 2 C3)  (* 1 C4)  (* 1 C5)  (* 1 C6)  (* 1 C7)  (* 1 C8)  (* 1 C9)  (* 0 C10) ))  (>= 928 (+  (* 3 C1)  (* 2 C2)  (* 2 C3)  (* 1 C4)  (* 1 C5)  (* 1 C6)  (* 1 C7)  (* 1 C8)  (* 1 C9)  (* 0 C10) ))  (>= 1183 (+  (* 3 C1)  (* 3 C2)  (* 2 C3)  (* 1 C4)  (* 1 C5)  (* 1 C6)  (* 1 C7)  (* 1 C8)  (* 1 C9)  (* 0 C10) ))  (>= 1311 (+  (* 3 C1)  (* 3 C2)  (* 2 C3)  (* 2 C4)  (* 1 C5)  (* 1 C6)  (* 1 C7)  (* 1 C8)  (* 1 C9)  (* 0 C10) ))  (>= 1392 (+  (* 4 C1)  (* 3 C2)  (* 2 C3)  (* 2 C4)  (* 1 C5)  (* 1 C6)  (* 1 C7)  (* 1 C8)  (* 1 C9)  (* 0 C10) ))  (>= 1608 (+  (* 4 C1)  (* 4 C2)  (* 2 C3)  (* 2 C4)  (* 1 C5)  (* 1 C6)  (* 1 C7)  (* 1 C8)  (* 1 C9)  (* 0 C10) ))  (>= 1748 (+  (* 4 C1)  (* 4 C2)  (* 3 C3)  (* 2 C4)  (* 1 C5)  (* 1 C6)  (* 1 C7)  (* 1 C8)  (* 1 C9)  (* 0 C10) ))  (>= 1856 (+  (* 5 C1)  (* 4 C2)  (* 3 C3)  (* 2 C4)  (* 1 C5)  (* 1 C6)  (* 1 C7)  (* 1 C8)  (* 1 C9)  (* 0 C10) ))  (>= 2185 (+  (* 5 C1)  (* 5 C2)  (* 3 C3)  (* 2 C4)  (* 1 C5)  (* 1 C6)  (* 1 C7)  (* 1 C8)  (* 1 C9)  (* 0 C10) ))  (>= 2241 (+  (* 6 C1)  (* 5 C2)  (* 3 C3)  (* 2 C4)  (* 1 C5)  (* 1 C6)  (* 1 C7)  (* 1 C8)  (* 1 C9)  (* 0 C10) ))  (>= 2280 (+  (* 6 C1)  (* 5 C2)  (* 3 C3)  (* 2 C4)  (* 2 C5)  (* 1 C6)  (* 1 C7)  (* 1 C8)  (* 1 C9)  (* 0 C10) ))  (>= 2320 (+  (* 6 C1)  (* 5 C2)  (* 3 C3)  (* 2 C4)  (* 2 C5)  (* 2 C6)  (* 1 C7)  (* 1 C8)  (* 1 C9)  (* 0 C10) ))  (>= 2366 (+  (* 6 C1)  (* 6 C2)  (* 3 C3)  (* 2 C4)  (* 2 C5)  (* 2 C6)  (* 1 C7)  (* 1 C8)  (* 1 C9)  (* 0 C10) ))  (>= 2412 (+  (* 6 C1)  (* 6 C2)  (* 3 C3)  (* 3 C4)  (* 2 C5)  (* 2 C6)  (* 1 C7)  (* 1 C8)  (* 1 C9)  (* 0 C10) ))  (>= 2622 (+  (* 6 C1)  (* 6 C2)  (* 4 C3)  (* 3 C4)  (* 2 C5)  (* 2 C6)  (* 1 C7)  (* 1 C8)  (* 1 C9)  (* 0 C10) ))  (>= 2715 (+  (* 7 C1)  (* 6 C2)  (* 4 C3)  (* 3 C4)  (* 2 C5)  (* 2 C6)  (* 1 C7)  (* 1 C8)  (* 1 C9)  (* 0 C10) ))  (>= 2784 (+  (* 7 C1)  (* 6 C2)  (* 4 C3)  (* 3 C4)  (* 2 C5)  (* 2 C6)  (* 2 C7)  (* 1 C8)  (* 1 C9)  (* 0 C10) ))  (>= 3059 (+  (* 7 C1)  (* 7 C2)  (* 4 C3)  (* 3 C4)  (* 2 C5)  (* 2 C6)  (* 2 C7)  (* 1 C8)  (* 1 C9)  (* 0 C10) ))  (>= 3216 (+  (* 8 C1)  (* 7 C2)  (* 4 C3)  (* 3 C4)  (* 2 C5)  (* 2 C6)  (* 2 C7)  (* 1 C8)  (* 1 C9)  (* 0 C10) ))  (>= 3248 (+  (* 8 C1)  (* 7 C2)  (* 5 C3)  (* 3 C4)  (* 2 C5)  (* 2 C6)  (* 2 C7)  (* 1 C8)  (* 1 C9)  (* 0 C10) ))  (>= 3496 (+  (* 8 C1)  (* 8 C2)  (* 5 C3)  (* 3 C4)  (* 2 C5)  (* 2 C6)  (* 2 C7)  (* 1 C8)  (* 1 C9)  (* 0 C10) ))  (>= 3549 (+  (* 9 C1)  (* 8 C2)  (* 5 C3)  (* 3 C4)  (* 2 C5)  (* 2 C6)  (* 2 C7)  (* 1 C8)  (* 1 C9)  (* 0 C10) ))  (>= 3712 (+  (* 9 C1)  (* 8 C2)  (* 5 C3)  (* 4 C4)  (* 2 C5)  (* 2 C6)  (* 2 C7)  (* 1 C8)  (* 1 C9)  (* 0 C10) ))  (>= 3933 (+  (* 9 C1)  (* 9 C2)  (* 5 C3)  (* 4 C4)  (* 2 C5)  (* 2 C6)  (* 2 C7)  (* 1 C8)  (* 1 C9)  (* 0 C10) ))  (>= 4020 (+  (* 10 C1)  (* 9 C2)  (* 5 C3)  (* 4 C4)  (* 2 C5)  (* 2 C6)  (* 2 C7)  (* 1 C8)  (* 1 C9)  (* 0 C10) ))  (>= 4138 (+  (* 10 C1)  (* 9 C2)  (* 6 C3)  (* 4 C4)  (* 2 C5)  (* 2 C6)  (* 2 C7)  (* 1 C8)  (* 1 C9)  (* 0 C10) ))  (>= 4176 (+  (* 10 C1)  (* 9 C2)  (* 6 C3)  (* 4 C4)  (* 2 C5)  (* 2 C6)  (* 2 C7)  (* 2 C8)  (* 1 C9)  (* 0 C10) ))  (>= 4370 (+  (* 10 C1)  (* 10 C2)  (* 6 C3)  (* 4 C4)  (* 2 C5)  (* 2 C6)  (* 2 C7)  (* 2 C8)  (* 1 C9)  (* 0 C10) ))  (>= 4482 (+  (* 11 C1)  (* 10 C2)  (* 6 C3)  (* 4 C4)  (* 2 C5)  (* 2 C6)  (* 2 C7)  (* 2 C8)  (* 1 C9)  (* 0 C10) ))  (>= 4560 (+  (* 11 C1)  (* 10 C2)  (* 6 C3)  (* 4 C4)  (* 3 C5)  (* 2 C6)  (* 2 C7)  (* 2 C8)  (* 1 C9)  (* 0 C10) ))  (>= 4571 (+  (* 11 C1)  (* 10 C2)  (* 6 C3)  (* 4 C4)  (* 3 C5)  (* 3 C6)  (* 2 C7)  (* 2 C8)  (* 1 C9)  (* 0 C10) )) ) ( or  (>= 437 (+  (* 1 C1)  (* 1 C2)  (* 1 C3)  (* 1 C4)  (* 1 C5)  (* 1 C6)  (* 1 C7)  (* 1 C8)  (* 1 C9)  (* 1 C10) ))  (>= 464 (+  (* 2 C1)  (* 1 C2)  (* 1 C3)  (* 1 C4)  (* 1 C5)  (* 1 C6)  (* 1 C7)  (* 1 C8)  (* 1 C9)  (* 1 C10) ))  (>= 804 (+  (* 2 C1)  (* 2 C2)  (* 1 C3)  (* 1 C4)  (* 1 C5)  (* 1 C6)  (* 1 C7)  (* 1 C8)  (* 1 C9)  (* 1 C10) ))  (>= 874 (+  (* 2 C1)  (* 2 C2)  (* 2 C3)  (* 1 C4)  (* 1 C5)  (* 1 C6)  (* 1 C7)  (* 1 C8)  (* 1 C9)  (* 1 C10) ))  (>= 928 (+  (* 3 C1)  (* 2 C2)  (* 2 C3)  (* 1 C4)  (* 1 C5)  (* 1 C6)  (* 1 C7)  (* 1 C8)  (* 1 C9)  (* 1 C10) ))  (>= 1183 (+  (* 3 C1)  (* 3 C2)  (* 2 C3)  (* 1 C4)  (* 1 C5)  (* 1 C6)  (* 1 C7)  (* 1 C8)  (* 1 C9)  (* 1 C10) ))  (>= 1311 (+  (* 3 C1)  (* 3 C2)  (* 2 C3)  (* 2 C4)  (* 1 C5)  (* 1 C6)  (* 1 C7)  (* 1 C8)  (* 1 C9)  (* 1 C10) ))  (>= 1392 (+  (* 4 C1)  (* 3 C2)  (* 2 C3)  (* 2 C4)  (* 1 C5)  (* 1 C6)  (* 1 C7)  (* 1 C8)  (* 1 C9)  (* 1 C10) ))  (>= 1608 (+  (* 4 C1)  (* 4 C2)  (* 2 C3)  (* 2 C4)  (* 1 C5)  (* 1 C6)  (* 1 C7)  (* 1 C8)  (* 1 C9)  (* 1 C10) ))  (>= 1748 (+  (* 4 C1)  (* 4 C2)  (* 3 C3)  (* 2 C4)  (* 1 C5)  (* 1 C6)  (* 1 C7)  (* 1 C8)  (* 1 C9)  (* 1 C10) ))  (>= 1856 (+  (* 5 C1)  (* 4 C2)  (* 3 C3)  (* 2 C4)  (* 1 C5)  (* 1 C6)  (* 1 C7)  (* 1 C8)  (* 1 C9)  (* 1 C10) ))  (>= 2185 (+  (* 5 C1)  (* 5 C2)  (* 3 C3)  (* 2 C4)  (* 1 C5)  (* 1 C6)  (* 1 C7)  (* 1 C8)  (* 1 C9)  (* 1 C10) ))  (>= 2241 (+  (* 6 C1)  (* 5 C2)  (* 3 C3)  (* 2 C4)  (* 1 C5)  (* 1 C6)  (* 1 C7)  (* 1 C8)  (* 1 C9)  (* 1 C10) ))  (>= 2280 (+  (* 6 C1)  (* 5 C2)  (* 3 C3)  (* 2 C4)  (* 2 C5)  (* 1 C6)  (* 1 C7)  (* 1 C8)  (* 1 C9)  (* 1 C10) ))  (>= 2320 (+  (* 6 C1)  (* 5 C2)  (* 3 C3)  (* 2 C4)  (* 2 C5)  (* 2 C6)  (* 1 C7)  (* 1 C8)  (* 1 C9)  (* 1 C10) ))  (>= 2366 (+  (* 6 C1)  (* 6 C2)  (* 3 C3)  (* 2 C4)  (* 2 C5)  (* 2 C6)  (* 1 C7)  (* 1 C8)  (* 1 C9)  (* 1 C10) ))  (>= 2412 (+  (* 6 C1)  (* 6 C2)  (* 3 C3)  (* 3 C4)  (* 2 C5)  (* 2 C6)  (* 1 C7)  (* 1 C8)  (* 1 C9)  (* 1 C10) ))  (>= 2622 (+  (* 6 C1)  (* 6 C2)  (* 4 C3)  (* 3 C4)  (* 2 C5)  (* 2 C6)  (* 1 C7)  (* 1 C8)  (* 1 C9)  (* 1 C10) ))  (>= 2715 (+  (* 7 C1)  (* 6 C2)  (* 4 C3)  (* 3 C4)  (* 2 C5)  (* 2 C6)  (* 1 C7)  (* 1 C8)  (* 1 C9)  (* 1 C10) ))  (>= 2784 (+  (* 7 C1)  (* 6 C2)  (* 4 C3)  (* 3 C4)  (* 2 C5)  (* 2 C6)  (* 2 C7)  (* 1 C8)  (* 1 C9)  (* 1 C10) ))  (>= 3059 (+  (* 7 C1)  (* 7 C2)  (* 4 C3)  (* 3 C4)  (* 2 C5)  (* 2 C6)  (* 2 C7)  (* 1 C8)  (* 1 C9)  (* 1 C10) ))  (>= 3216 (+  (* 8 C1)  (* 7 C2)  (* 4 C3)  (* 3 C4)  (* 2 C5)  (* 2 C6)  (* 2 C7)  (* 1 C8)  (* 1 C9)  (* 1 C10) ))  (>= 3248 (+  (* 8 C1)  (* 7 C2)  (* 5 C3)  (* 3 C4)  (* 2 C5)  (* 2 C6)  (* 2 C7)  (* 1 C8)  (* 1 C9)  (* 1 C10) ))  (>= 3496 (+  (* 8 C1)  (* 8 C2)  (* 5 C3)  (* 3 C4)  (* 2 C5)  (* 2 C6)  (* 2 C7)  (* 1 C8)  (* 1 C9)  (* 1 C10) ))  (>= 3549 (+  (* 9 C1)  (* 8 C2)  (* 5 C3)  (* 3 C4)  (* 2 C5)  (* 2 C6)  (* 2 C7)  (* 1 C8)  (* 1 C9)  (* 1 C10) ))  (>= 3712 (+  (* 9 C1)  (* 8 C2)  (* 5 C3)  (* 4 C4)  (* 2 C5)  (* 2 C6)  (* 2 C7)  (* 1 C8)  (* 1 C9)  (* 1 C10) ))  (>= 3933 (+  (* 9 C1)  (* 9 C2)  (* 5 C3)  (* 4 C4)  (* 2 C5)  (* 2 C6)  (* 2 C7)  (* 1 C8)  (* 1 C9)  (* 1 C10) ))  (>= 4020 (+  (* 10 C1)  (* 9 C2)  (* 5 C3)  (* 4 C4)  (* 2 C5)  (* 2 C6)  (* 2 C7)  (* 1 C8)  (* 1 C9)  (* 1 C10) ))  (>= 4138 (+  (* 10 C1)  (* 9 C2)  (* 6 C3)  (* 4 C4)  (* 2 C5)  (* 2 C6)  (* 2 C7)  (* 1 C8)  (* 1 C9)  (* 1 C10) ))  (>= 4176 (+  (* 10 C1)  (* 9 C2)  (* 6 C3)  (* 4 C4)  (* 2 C5)  (* 2 C6)  (* 2 C7)  (* 2 C8)  (* 1 C9)  (* 1 C10) ))  (>= 4370 (+  (* 10 C1)  (* 10 C2)  (* 6 C3)  (* 4 C4)  (* 2 C5)  (* 2 C6)  (* 2 C7)  (* 2 C8)  (* 1 C9)  (* 1 C10) ))  (>= 4482 (+  (* 11 C1)  (* 10 C2)  (* 6 C3)  (* 4 C4)  (* 2 C5)  (* 2 C6)  (* 2 C7)  (* 2 C8)  (* 1 C9)  (* 1 C10) ))  (>= 4560 (+  (* 11 C1)  (* 10 C2)  (* 6 C3)  (* 4 C4)  (* 3 C5)  (* 2 C6)  (* 2 C7)  (* 2 C8)  (* 1 C9)  (* 1 C10) ))  (>= 4571 (+  (* 11 C1)  (* 10 C2)  (* 6 C3)  (* 4 C4)  (* 3 C5)  (* 3 C6)  (* 2 C7)  (* 2 C8)  (* 1 C9)  (* 1 C10) ))  (>= 4640 (+  (* 11 C1)  (* 10 C2)  (* 6 C3)  (* 4 C4)  (* 3 C5)  (* 3 C6)  (* 2 C7)  (* 2 C8)  (* 2 C9)  (* 1 C10) ))  (>= 4732 (+  (* 11 C1)  (* 11 C2)  (* 6 C3)  (* 4 C4)  (* 3 C5)  (* 3 C6)  (* 2 C7)  (* 2 C8)  (* 2 C9)  (* 1 C10) ))  (>= 4807 (+  (* 11 C1)  (* 11 C2)  (* 6 C3)  (* 5 C4)  (* 3 C5)  (* 3 C6)  (* 2 C7)  (* 2 C8)  (* 2 C9)  (* 1 C10) ))  (>= 4824 (+  (* 12 C1)  (* 11 C2)  (* 6 C3)  (* 5 C4)  (* 3 C5)  (* 3 C6)  (* 2 C7)  (* 2 C8)  (* 2 C9)  (* 1 C10) ))  (>= 4981 (+  (* 12 C1)  (* 11 C2)  (* 7 C3)  (* 5 C4)  (* 3 C5)  (* 3 C6)  (* 2 C7)  (* 2 C8)  (* 2 C9)  (* 1 C10) )) )  (and (>= C1 4) (>= C2 4) (>= C3 8) (>= C4 11) (>= C5 22) (>= C6 22) (>= C7 27) (>= C8 41) (>= C9 45) (>= C10 49) )  (and (<= C1 184) (<= C2 195) (<= C3 338) (<= C4 498) (<= C5 944) (<= C6 960) (<= C7 1143) (<= C8 1743) (<= C9 1925) (<= C10 2098) ) )))
(=> $phi $goal))))